60
1 0 8
2 0 10
2 1 8
3 0 9
3 1 1
3 2 1
4 0 9
4 1 2
4 2 2
4 3 3
5 0 6
5 1 10
5 2 4
5 3 7
5 4 5
6 0 5
6 1 1
6 2 5
6 3 9
6 4 4
6 5 1
7 0 4
7 1 8
7 2 10
7 3 8
7 4 1
7 5 10
7 6 1
8 0 6
8 1 3
8 2 6
8 3 5
8 4 7
8 5 3
8 6 10
8 7 9
9 0 9
9 1 6
9 2 5
9 3 10
9 4 10
9 5 3
9 6 6
9 7 9
9 8 7
10 0 3
10 1 3
10 2 1
10 3 6
10 4 8
10 5 2
10 6 1
10 7 9
10 8 3
10 9 4
11 0 3
11 1 7
11 2 10
11 3 2
11 4 2
11 5 1
11 6 3
11 7 6
11 8 8
11 9 9
11 10 3
12 0 3
12 1 6
12 2 1
12 3 9
12 4 1
12 5 9
12 6 4
12 7 3
12 8 6
12 9 10
12 10 5
12 11 7
13 0 4
13 1 6
13 2 9
13 3 4
13 4 6
13 5 4
13 6 10
13 7 4
13 8 5
13 9 2
13 10 3
13 11 10
13 12 10
14 0 2
14 1 7
14 2 4
14 3 7
14 4 3
14 5 8
14 6 2
14 7 1
14 8 1
14 9 7
14 10 7
14 11 3
14 12 4
14 13 8
15 0 6
15 1 6
15 2 2
15 3 10
15 4 3
15 5 2
15 6 10
15 7 4
15 8 8
15 9 5
15 10 4
15 11 3
15 12 7
15 13 2
15 14 2
16 0 5
16 1 3
16 2 7
16 3 3
16 4 4
16 5 10
16 6 4
16 7 7
16 8 3
16 9 1
16 10 1
16 11 10
16 12 6
16 13 1
16 14 1
16 15 6
17 0 7
17 1 6
17 2 5
17 3 6
17 4 1
17 5 8
17 6 5
17 7 1
17 8 6
17 9 10
17 10 9
17 11 4
17 12 1
17 13 2
17 14 9
17 15 3
17 16 10
18 0 9
18 1 6
18 2 3
18 3 7
18 4 6
18 5 7
18 6 9
18 7 4
18 8 7
18 9 4
18 10 9
18 11 1
18 12 1
18 13 10
18 14 2
18 15 7
18 16 3
18 17 10
19 0 2
19 1 2
19 2 8
19 3 1
19 4 1
19 5 6
19 6 9
19 7 3
19 8 8
19 9 2
19 10 10
19 11 10
19 12 5
19 13 4
19 14 1
19 15 4
19 16 1
19 17 2
19 18 4
20 0 5
20 1 7
20 2 3
20 3 2
20 4 3
20 5 9
20 6 6
20 7 8
20 8 10
20 9 8
20 10 2
20 11 10
20 12 7
20 13 9
20 14 5
20 15 1
20 16 9
20 17 6
20 18 5
20 19 7
21 0 7
21 1 2
21 2 8
21 3 10
21 4 2
21 5 10
21 6 6
21 7 10
21 8 3
21 9 1
21 10 8
21 11 10
21 12 2
21 13 6
21 14 10
21 15 5
21 16 3
21 17 7
21 18 7
21 19 10
21 20 1
22 0 4
22 1 5
22 2 9
22 3 9
22 4 3
22 5 2
22 6 1
22 7 5
22 8 2
22 9 1
22 10 3
22 11 2
22 12 1
22 13 1
22 14 2
22 15 10
22 16 7
22 17 5
22 18 10
22 19 1
22 20 10
22 21 4
23 0 3
23 1 3
23 2 8
23 3 6
23 4 9
23 5 7
23 6 4
23 7 6
23 8 6
23 9 8
23 10 4
23 11 8
23 12 2
23 13 6
23 14 8
23 15 1
23 16 1
23 17 4
23 18 8
23 19 8
23 20 7
23 21 3
23 22 9
24 0 9
24 1 9
24 2 1
24 3 8
24 4 9
24 5 9
24 6 8
24 7 5
24 8 2
24 9 3
24 10 1
24 11 1
24 12 8
24 13 8
24 14 9
24 15 6
24 16 7
24 17 8
24 18 6
24 19 5
24 20 8
24 21 7
24 22 2
24 23 2
25 0 10
25 1 8
25 2 7
25 3 6
25 4 4
25 5 5
25 6 6
25 7 8
25 8 5
25 9 5
25 10 5
25 11 9
25 12 5
25 13 8
25 14 5
25 15 4
25 16 8
25 17 4
25 18 9
25 19 9
25 20 3
25 21 1
25 22 9
25 23 8
25 24 9
26 0 6
26 1 7
26 2 7
26 3 6
26 4 3
26 5 5
26 6 8
26 7 9
26 8 10
26 9 3
26 10 4
26 11 2
26 12 2
26 13 7
26 14 9
26 15 7
26 16 6
26 17 5
26 18 5
26 19 10
26 20 10
26 21 7
26 22 3
26 23 1
26 24 6
26 25 10
27 0 10
27 1 1
27 2 8
27 3 9
27 4 10
27 5 10
27 6 4
27 7 8
27 8 3
27 9 3
27 10 10
27 11 8
27 12 5
27 13 7
27 14 3
27 15 4
27 16 1
27 17 7
27 18 7
27 19 2
27 20 5
27 21 7
27 22 5
27 23 4
27 24 7
27 25 2
27 26 6
28 0 7
28 1 8
28 2 4
28 3 2
28 4 9
28 5 5
28 6 9
28 7 7
28 8 1
28 9 1
28 10 1
28 11 3
28 12 9
28 13 3
28 14 7
28 15 9
28 16 5
28 17 3
28 18 5
28 19 5
28 20 8
28 21 2
28 22 9
28 23 5
28 24 3
28 25 9
28 26 9
28 27 6
29 0 6
29 1 10
29 2 10
29 3 10
29 4 10
29 5 2
29 6 8
29 7 1
29 8 4
29 9 7
29 10 6
29 11 8
29 12 9
29 13 1
29 14 2
29 15 3
29 16 1
29 17 1
29 18 5
29 19 8
29 20 2
29 21 4
29 22 10
29 23 7
29 24 4
29 25 1
29 26 6
29 27 3
29 28 4
30 0 5
30 1 10
30 2 9
30 3 5
30 4 6
30 5 6
30 6 2
30 7 6
30 8 3
30 9 9
30 10 2
30 11 2
30 12 2
30 13 10
30 14 9
30 15 6
30 16 7
30 17 1
30 18 9
30 19 7
30 20 5
30 21 10
30 22 5
30 23 6
30 24 1
30 25 7
30 26 2
30 27 7
30 28 8
30 29 8
31 0 5
31 1 1
31 2 2
31 3 6
31 4 2
31 5 10
31 6 6
31 7 6
31 8 2
31 9 6
31 10 8
31 11 7
31 12 7
31 13 8
31 14 4
31 15 4
31 16 6
31 17 3
31 18 6
31 19 5
31 20 5
31 21 10
31 22 5
31 23 1
31 24 7
31 25 3
31 26 9
31 27 7
31 28 5
31 29 9
31 30 4
32 0 5
32 1 2
32 2 9
32 3 9
32 4 6
32 5 6
32 6 3
32 7 6
32 8 8
32 9 7
32 10 6
32 11 5
32 12 5
32 13 6
32 14 10
32 15 9
32 16 8
32 17 9
32 18 10
32 19 10
32 20 8
32 21 8
32 22 4
32 23 5
32 24 4
32 25 4
32 26 8
32 27 10
32 28 8
32 29 9
32 30 5
32 31 10
33 0 4
33 1 3
33 2 4
33 3 10
33 4 4
33 5 1
33 6 7
33 7 2
33 8 4
33 9 7
33 10 9
33 11 8
33 12 1
33 13 3
33 14 8
33 15 9
33 16 9
33 17 7
33 18 2
33 19 8
33 20 8
33 21 3
33 22 9
33 23 6
33 24 5
33 25 4
33 26 3
33 27 6
33 28 1
33 29 10
33 30 10
33 31 6
33 32 1
34 0 8
34 1 1
34 2 7
34 3 6
34 4 8
34 5 4
34 6 3
34 7 4
34 8 10
34 9 9
34 10 3
34 11 10
34 12 6
34 13 3
34 14 7
34 15 7
34 16 3
34 17 1
34 18 4
34 19 2
34 20 2
34 21 4
34 22 4
34 23 8
34 24 8
34 25 8
34 26 4
34 27 10
34 28 6
34 29 5
34 30 5
34 31 8
34 32 7
34 33 2
35 0 3
35 1 1
35 2 2
35 3 8
35 4 5
35 5 3
35 6 8
35 7 10
35 8 8
35 9 3
35 10 5
35 11 7
35 12 10
35 13 7
35 14 2
35 15 3
35 16 6
35 17 7
35 18 7
35 19 4
35 20 8
35 21 5
35 22 3
35 23 8
35 24 9
35 25 4
35 26 9
35 27 1
35 28 2
35 29 2
35 30 9
35 31 6
35 32 7
35 33 9
35 34 10
36 0 9
36 1 2
36 2 10
36 3 4
36 4 2
36 5 2
36 6 7
36 7 2
36 8 2
36 9 1
36 10 6
36 11 5
36 12 10
36 13 5
36 14 7
36 15 5
36 16 2
36 17 2
36 18 1
36 19 5
36 20 3
36 21 2
36 22 2
36 23 1
36 24 5
36 25 2
36 26 6
36 27 7
36 28 9
36 29 10
36 30 1
36 31 10
36 32 8
36 33 8
36 34 6
36 35 5
37 0 3
37 1 3
37 2 9
37 3 10
37 4 10
37 5 10
37 6 3
37 7 3
37 8 3
37 9 5
37 10 4
37 11 9
37 12 1
37 13 10
37 14 2
37 15 4
37 16 8
37 17 8
37 18 4
37 19 7
37 20 9
37 21 10
37 22 6
37 23 6
37 24 10
37 25 6
37 26 5
37 27 8
37 28 10
37 29 1
37 30 7
37 31 9
37 32 8
37 33 10
37 34 3
37 35 3
37 36 6
38 0 9
38 1 6
38 2 7
38 3 10
38 4 9
38 5 6
38 6 8
38 7 3
38 8 8
38 9 3
38 10 2
38 11 8
38 12 5
38 13 1
38 14 7
38 15 2
38 16 8
38 17 2
38 18 1
38 19 4
38 20 6
38 21 1
38 22 5
38 23 6
38 24 8
38 25 6
38 26 5
38 27 4
38 28 9
38 29 2
38 30 1
38 31 8
38 32 3
38 33 6
38 34 1
38 35 5
38 36 4
38 37 8
39 0 2
39 1 9
39 2 4
39 3 5
39 4 9
39 5 5
39 6 3
39 7 1
39 8 4
39 9 3
39 10 7
39 11 3
39 12 6
39 13 8
39 14 7
39 15 2
39 16 2
39 17 4
39 18 8
39 19 2
39 20 9
39 21 6
39 22 3
39 23 2
39 24 5
39 25 5
39 26 9
39 27 2
39 28 6
39 29 8
39 30 4
39 31 6
39 32 6
39 33 4
39 34 1
39 35 1
39 36 4
39 37 8
39 38 6
40 0 3
40 1 6
40 2 7
40 3 3
40 4 3
40 5 4
40 6 3
40 7 9
40 8 2
40 9 6
40 10 4
40 11 4
40 12 10
40 13 7
40 14 10
40 15 1
40 16 7
40 17 3
40 18 4
40 19 7
40 20 10
40 21 1
40 22 1
40 23 1
40 24 3
40 25 6
40 26 2
40 27 6
40 28 6
40 29 4
40 30 8
40 31 6
40 32 9
40 33 8
40 34 1
40 35 10
40 36 3
40 37 8
40 38 7
40 39 5
41 0 8
41 1 4
41 2 9
41 3 4
41 4 3
41 5 4
41 6 4
41 7 7
41 8 3
41 9 6
41 10 5
41 11 5
41 12 2
41 13 5
41 14 1
41 15 6
41 16 3
41 17 9
41 18 1
41 19 8
41 20 3
41 21 5
41 22 5
41 23 7
41 24 10
41 25 1
41 26 2
41 27 4
41 28 6
41 29 5
41 30 4
41 31 10
41 32 2
41 33 2
41 34 6
41 35 5
41 36 5
41 37 10
41 38 8
41 39 1
41 40 10
42 0 5
42 1 1
42 2 1
42 3 1
42 4 1
42 5 9
42 6 7
42 7 3
42 8 2
42 9 3
42 10 6
42 11 10
42 12 6
42 13 8
42 14 2
42 15 2
42 16 1
42 17 6
42 18 6
42 19 8
42 20 8
42 21 2
42 22 1
42 23 8
42 24 6
42 25 10
42 26 8
42 27 3
42 28 9
42 29 3
42 30 6
42 31 10
42 32 10
42 33 6
42 34 2
42 35 10
42 36 7
42 37 2
42 38 6
42 39 8
42 40 1
42 41 1
43 0 4
43 1 8
43 2 4
43 3 1
43 4 9
43 5 4
43 6 7
43 7 1
43 8 1
43 9 9
43 10 7
43 11 2
43 12 3
43 13 8
43 14 4
43 15 9
43 16 2
43 17 2
43 18 4
43 19 8
43 20 6
43 21 7
43 22 9
43 23 9
43 24 10
43 25 9
43 26 8
43 27 4
43 28 10
43 29 5
43 30 1
43 31 6
43 32 10
43 33 10
43 34 9
43 35 9
43 36 7
43 37 9
43 38 2
43 39 2
43 40 3
43 41 10
43 42 5
44 0 9
44 1 3
44 2 9
44 3 7
44 4 10
44 5 6
44 6 2
44 7 8
44 8 3
44 9 7
44 10 4
44 11 10
44 12 4
44 13 7
44 14 9
44 15 9
44 16 4
44 17 2
44 18 10
44 19 3
44 20 4
44 21 5
44 22 3
44 23 3
44 24 8
44 25 7
44 26 3
44 27 10
44 28 10
44 29 10
44 30 1
44 31 7
44 32 7
44 33 6
44 34 5
44 35 5
44 36 6
44 37 7
44 38 5
44 39 8
44 40 1
44 41 7
44 42 4
44 43 3
45 0 8
45 1 8
45 2 8
45 3 2
45 4 1
45 5 5
45 6 5
45 7 5
45 8 5
45 9 4
45 10 2
45 11 4
45 12 1
45 13 10
45 14 2
45 15 6
45 16 4
45 17 9
45 18 3
45 19 1
45 20 4
45 21 2
45 22 5
45 23 4
45 24 10
45 25 10
45 26 7
45 27 4
45 28 8
45 29 2
45 30 8
45 31 8
45 32 6
45 33 2
45 34 10
45 35 6
45 36 2
45 37 5
45 38 1
45 39 10
45 40 7
45 41 4
45 42 4
45 43 7
45 44 3
46 0 6
46 1 4
46 2 6
46 3 9
46 4 5
46 5 3
46 6 8
46 7 3
46 8 9
46 9 1
46 10 4
46 11 1
46 12 5
46 13 7
46 14 5
46 15 9
46 16 8
46 17 6
46 18 6
46 19 10
46 20 4
46 21 4
46 22 5
46 23 1
46 24 10
46 25 5
46 26 4
46 27 7
46 28 1
46 29 6
46 30 1
46 31 5
46 32 1
46 33 5
46 34 4
46 35 1
46 36 2
46 37 10
46 38 6
46 39 2
46 40 1
46 41 10
46 42 8
46 43 1
46 44 9
46 45 5
47 0 2
47 1 9
47 2 8
47 3 3
47 4 5
47 5 7
47 6 9
47 7 4
47 8 9
47 9 7
47 10 7
47 11 7
47 12 10
47 13 10
47 14 4
47 15 1
47 16 2
47 17 6
47 18 4
47 19 2
47 20 4
47 21 4
47 22 1
47 23 5
47 24 3
47 25 1
47 26 7
47 27 9
47 28 6
47 29 1
47 30 1
47 31 7
47 32 3
47 33 4
47 34 2
47 35 1
47 36 2
47 37 3
47 38 7
47 39 9
47 40 10
47 41 3
47 42 2
47 43 3
47 44 10
47 45 6
47 46 7
48 0 8
48 1 8
48 2 9
48 3 4
48 4 6
48 5 4
48 6 2
48 7 9
48 8 8
48 9 9
48 10 10
48 11 8
48 12 7
48 13 4
48 14 10
48 15 6
48 16 6
48 17 7
48 18 5
48 19 5
48 20 5
48 21 10
48 22 5
48 23 6
48 24 8
48 25 6
48 26 8
48 27 9
48 28 2
48 29 9
48 30 3
48 31 7
48 32 8
48 33 1
48 34 4
48 35 1
48 36 8
48 37 2
48 38 1
48 39 10
48 40 1
48 41 6
48 42 4
48 43 8
48 44 4
48 45 5
48 46 6
48 47 1
49 0 5
49 1 7
49 2 2
49 3 10
49 4 6
49 5 8
49 6 7
49 7 4
49 8 5
49 9 3
49 10 3
49 11 10
49 12 5
49 13 2
49 14 2
49 15 3
49 16 10
49 17 1
49 18 2
49 19 4
49 20 3
49 21 10
49 22 8
49 23 10
49 24 3
49 25 7
49 26 3
49 27 4
49 28 8
49 29 7
49 30 3
49 31 5
49 32 10
49 33 5
49 34 8
49 35 1
49 36 5
49 37 1
49 38 2
49 39 10
49 40 1
49 41 3
49 42 10
49 43 4
49 44 3
49 45 5
49 46 7
49 47 3
49 48 3
50 0 5
50 1 2
50 2 10
50 3 3
50 4 2
50 5 1
50 6 10
50 7 2
50 8 9
50 9 2
50 10 3
50 11 6
50 12 1
50 13 10
50 14 5
50 15 1
50 16 7
50 17 7
50 18 5
50 19 8
50 20 5
50 21 9
50 22 8
50 23 1
50 24 2
50 25 4
50 26 4
50 27 1
50 28 1
50 29 8
50 30 1
50 31 5
50 32 4
50 33 9
50 34 6
50 35 1
50 36 10
50 37 4
50 38 3
50 39 2
50 40 2
50 41 9
50 42 1
50 43 4
50 44 5
50 45 4
50 46 1
50 47 4
50 48 3
50 49 1
51 0 4
51 1 9
51 2 4
51 3 5
51 4 3
51 5 7
51 6 10
51 7 9
51 8 7
51 9 9
51 10 3
51 11 4
51 12 3
51 13 1
51 14 3
51 15 5
51 16 4
51 17 5
51 18 5
51 19 2
51 20 3
51 21 4
51 22 1
51 23 1
51 24 5
51 25 1
51 26 4
51 27 1
51 28 1
51 29 9
51 30 7
51 31 8
51 32 8
51 33 5
51 34 8
51 35 8
51 36 1
51 37 7
51 38 3
51 39 9
51 40 5
51 41 10
51 42 8
51 43 6
51 44 10
51 45 4
51 46 9
51 47 7
51 48 2
51 49 4
51 50 2
52 0 4
52 1 6
52 2 3
52 3 6
52 4 2
52 5 8
52 6 5
52 7 10
52 8 5
52 9 10
52 10 2
52 11 6
52 12 7
52 13 9
52 14 10
52 15 4
52 16 5
52 17 9
52 18 10
52 19 7
52 20 5
52 21 2
52 22 1
52 23 2
52 24 5
52 25 5
52 26 10
52 27 3
52 28 6
52 29 2
52 30 10
52 31 4
52 32 8
52 33 7
52 34 10
52 35 5
52 36 10
52 37 3
52 38 6
52 39 9
52 40 8
52 41 2
52 42 7
52 43 9
52 44 2
52 45 9
52 46 6
52 47 5
52 48 1
52 49 3
52 50 9
52 51 10
53 0 6
53 1 2
53 2 8
53 3 4
53 4 2
53 5 2
53 6 2
53 7 6
53 8 7
53 9 10
53 10 2
53 11 6
53 12 6
53 13 9
53 14 6
53 15 9
53 16 9
53 17 5
53 18 1
53 19 4
53 20 7
53 21 3
53 22 5
53 23 3
53 24 2
53 25 7
53 26 3
53 27 6
53 28 7
53 29 5
53 30 2
53 31 9
53 32 8
53 33 3
53 34 10
53 35 6
53 36 4
53 37 7
53 38 4
53 39 9
53 40 7
53 41 8
53 42 1
53 43 1
53 44 3
53 45 5
53 46 8
53 47 9
53 48 5
53 49 7
53 50 5
53 51 9
53 52 5
54 0 8
54 1 3
54 2 8
54 3 10
54 4 10
54 5 9
54 6 8
54 7 4
54 8 9
54 9 2
54 10 2
54 11 2
54 12 10
54 13 5
54 14 7
54 15 8
54 16 3
54 17 7
54 18 3
54 19 6
54 20 6
54 21 6
54 22 1
54 23 9
54 24 2
54 25 2
54 26 5
54 27 6
54 28 6
54 29 9
54 30 3
54 31 9
54 32 6
54 33 1
54 34 1
54 35 3
54 36 2
54 37 2
54 38 2
54 39 2
54 40 1
54 41 6
54 42 7
54 43 3
54 44 9
54 45 10
54 46 5
54 47 4
54 48 5
54 49 9
54 50 6
54 51 1
54 52 7
54 53 1
55 0 3
55 1 5
55 2 4
55 3 4
55 4 3
55 5 4
55 6 2
55 7 4
55 8 4
55 9 9
55 10 6
55 11 6
55 12 7
55 13 2
55 14 10
55 15 2
55 16 3
55 17 3
55 18 6
55 19 10
55 20 6
55 21 10
55 22 10
55 23 10
55 24 9
55 25 1
55 26 3
55 27 4
55 28 5
55 29 2
55 30 4
55 31 10
55 32 1
55 33 4
55 34 2
55 35 1
55 36 10
55 37 10
55 38 7
55 39 9
55 40 4
55 41 7
55 42 3
55 43 6
55 44 9
55 45 7
55 46 1
55 47 5
55 48 2
55 49 5
55 50 9
55 51 8
55 52 1
55 53 6
55 54 4
56 0 6
56 1 1
56 2 9
56 3 5
56 4 1
56 5 3
56 6 5
56 7 8
56 8 9
56 9 5
56 10 10
56 11 9
56 12 8
56 13 5
56 14 4
56 15 5
56 16 3
56 17 3
56 18 8
56 19 10
56 20 1
56 21 3
56 22 10
56 23 10
56 24 6
56 25 8
56 26 4
56 27 4
56 28 7
56 29 7
56 30 3
56 31 7
56 32 7
56 33 10
56 34 5
56 35 4
56 36 1
56 37 7
56 38 8
56 39 1
56 40 1
56 41 7
56 42 5
56 43 1
56 44 6
56 45 6
56 46 6
56 47 1
56 48 6
56 49 9
56 50 7
56 51 3
56 52 3
56 53 5
56 54 4
56 55 8
57 0 5
57 1 8
57 2 4
57 3 4
57 4 9
57 5 5
57 6 6
57 7 9
57 8 5
57 9 4
57 10 5
57 11 1
57 12 3
57 13 2
57 14 10
57 15 9
57 16 2
57 17 4
57 18 1
57 19 7
57 20 5
57 21 3
57 22 5
57 23 8
57 24 9
57 25 10
57 26 7
57 27 7
57 28 3
57 29 9
57 30 9
57 31 7
57 32 9
57 33 6
57 34 1
57 35 5
57 36 2
57 37 1
57 38 10
57 39 4
57 40 8
57 41 9
57 42 9
57 43 6
57 44 3
57 45 2
57 46 10
57 47 7
57 48 10
57 49 5
57 50 7
57 51 8
57 52 10
57 53 10
57 54 2
57 55 9
57 56 6
58 0 9
58 1 1
58 2 5
58 3 1
58 4 8
58 5 4
58 6 1
58 7 10
58 8 6
58 9 2
58 10 3
58 11 3
58 12 3
58 13 6
58 14 10
58 15 6
58 16 7
58 17 6
58 18 6
58 19 2
58 20 7
58 21 1
58 22 4
58 23 6
58 24 9
58 25 8
58 26 3
58 27 10
58 28 3
58 29 10
58 30 4
58 31 10
58 32 8
58 33 10
58 34 7
58 35 8
58 36 3
58 37 3
58 38 2
58 39 2
58 40 4
58 41 10
58 42 7
58 43 5
58 44 10
58 45 7
58 46 8
58 47 10
58 48 6
58 49 7
58 50 9
58 51 8
58 52 8
58 53 1
58 54 3
58 55 9
58 56 7
58 57 6
59 0 3
59 1 7
59 2 10
59 3 3
59 4 1
59 5 4
59 6 1
59 7 1
59 8 10
59 9 8
59 10 9
59 11 9
59 12 2
59 13 4
59 14 5
59 15 7
59 16 8
59 17 8
59 18 3
59 19 9
59 20 9
59 21 7
59 22 8
59 23 9
59 24 4
59 25 1
59 26 6
59 27 7
59 28 3
59 29 3
59 30 10
59 31 7
59 32 5
59 33 9
59 34 1
59 35 2
59 36 2
59 37 9
59 38 7
59 39 7
59 40 8
59 41 6
59 42 9
59 43 8
59 44 2
59 45 5
59 46 2
59 47 3
59 48 4
59 49 4
59 50 4
59 51 8
59 52 4
59 53 9
59 54 1
59 55 9
59 56 10
59 57 8
59 58 4
